\Problem name: compact

Minimize
OBJROW: C
Subject To
ord(0,1):  x(0,0) - x(0,1) >= 10
ord(0,2):  - x(0,0) + x(0,2) >= 5
ord(0,3):  - x(0,2) + x(0,3) >= 7
ord(0,4):  - x(0,3) + x(0,4) >= 5
ord(1,1):  - x(1,2) + x(1,3) >= 7
ord(1,2):  - x(1,3) + x(1,4) >= 5
ord(1,3):  x(1,1) - x(1,4) >= 8
ord(1,4):  x(1,0) - x(1,1) >= 9
ord(2,1):  x(2,0) - x(2,2) >= 7
ord(2,2):  - x(2,0) + x(2,4) >= 2
ord(2,3):  x(2,1) - x(2,4) >= 5
ord(2,4):  - x(2,1) + x(2,3) >= 2
triangle2(0,1,0):  y(0,1,0) + y(1,0,0) = 1
triangle2(0,1,1):  y(0,1,1) + y(1,0,1) = 1
triangle2(0,1,2):  y(0,1,2) + y(1,0,2) = 1
triangle2(0,1,3):  y(0,1,3) + y(1,0,3) = 1
triangle2(0,1,4):  y(0,1,4) + y(1,0,4) = 1
triangle2(0,2,0):  y(0,2,0) + y(2,0,0) = 1
triangle2(0,2,1):  y(0,2,1) + y(2,0,1) = 1
triangle2(0,2,2):  y(0,2,2) + y(2,0,2) = 1
triangle2(0,2,3):  y(0,2,3) + y(2,0,3) = 1
triangle2(0,2,4):  y(0,2,4) + y(2,0,4) = 1
triangle2(1,2,0):  y(1,2,0) + y(2,1,0) = 1
triangle2(1,2,1):  y(1,2,1) + y(2,1,1) = 1
triangle2(1,2,2):  y(1,2,2) + y(2,1,2) = 1
triangle2(1,2,3):  y(1,2,3) + y(2,1,3) = 1
triangle2(1,2,4):  y(1,2,4) + y(2,1,4) = 1
MCLinV(0,1,0):  x(0,0) - v(0,1,0) - x(1,0) = 8
MCLinV(1,0,0):  - x(0,0) - v(1,0,0) + x(1,0) = 5
MCLin1(0,1,0):  u(0,1,0) >= -0
MCLin2(0,1,0):  -81 y(1,0,0) - u(0,1,0) <= -0
MCLin3(0,1,0):  35 y(1,0,0) + v(0,1,0) - u(0,1,0) <= 35
MCLin4(0,1,0):  35 y(1,0,0) - u(0,1,0) >= -0
MCLin5(0,1,0):  -81 y(1,0,0) + v(0,1,0) - u(0,1,0) >= -81
MCLin6(1,0,0):  u(1,0,0) >= -0
MCLin7(1,0,0):  -48 y(0,1,0) - u(1,0,0) <= -0
MCLin8(1,0,0):  68 y(0,1,0) + v(1,0,0) - u(1,0,0) <= 68
MCLin9(1,0,0):  68 y(0,1,0) - u(1,0,0) >= -0
MCLin10(1,0,0):  -48 y(0,1,0) + v(1,0,0) - u(1,0,0) >= -48
MCLinV(0,1,1):  x(0,1) - v(0,1,1) - x(1,1) = 9
MCLinV(1,0,1):  - x(0,1) - v(1,0,1) + x(1,1) = 10
MCLin1(0,1,1):  u(0,1,1) >= -0
MCLin2(0,1,1):  -83 y(1,0,1) - u(0,1,1) <= -0
MCLin3(0,1,1):  33 y(1,0,1) + v(0,1,1) - u(0,1,1) <= 33
MCLin4(0,1,1):  33 y(1,0,1) - u(0,1,1) >= -0
MCLin5(0,1,1):  -83 y(1,0,1) + v(0,1,1) - u(0,1,1) >= -83
MCLin6(1,0,1):  u(1,0,1) >= -0
MCLin7(1,0,1):  -52 y(0,1,1) - u(1,0,1) <= -0
MCLin8(1,0,1):  64 y(0,1,1) + v(1,0,1) - u(1,0,1) <= 64
MCLin9(1,0,1):  64 y(0,1,1) - u(1,0,1) >= -0
MCLin10(1,0,1):  -52 y(0,1,1) + v(1,0,1) - u(1,0,1) >= -52
MCLinV(0,1,2):  x(0,2) - v(0,1,2) - x(1,2) = 7
MCLinV(1,0,2):  - x(0,2) - v(1,0,2) + x(1,2) = 7
MCLin1(0,1,2):  u(0,1,2) >= -0
MCLin2(0,1,2):  -46 y(1,0,2) - u(0,1,2) <= -0
MCLin3(0,1,2):  70 y(1,0,2) + v(0,1,2) - u(0,1,2) <= 70
MCLin4(0,1,2):  70 y(1,0,2) - u(0,1,2) >= -0
MCLin5(0,1,2):  -46 y(1,0,2) + v(0,1,2) - u(0,1,2) >= -46
MCLin6(1,0,2):  u(1,0,2) >= -0
MCLin7(1,0,2):  -84 y(0,1,2) - u(1,0,2) <= -0
MCLin8(1,0,2):  32 y(0,1,2) + v(1,0,2) - u(1,0,2) <= 32
MCLin9(1,0,2):  32 y(0,1,2) - u(1,0,2) >= -0
MCLin10(1,0,2):  -84 y(0,1,2) + v(1,0,2) - u(1,0,2) >= -84
MCLinV(0,1,3):  x(0,3) - v(0,1,3) - x(1,3) = 5
MCLinV(1,0,3):  - x(0,3) - v(1,0,3) + x(1,3) = 5
MCLin1(0,1,3):  u(0,1,3) >= -0
MCLin2(0,1,3):  -44 y(1,0,3) - u(0,1,3) <= -0
MCLin3(0,1,3):  72 y(1,0,3) + v(0,1,3) - u(0,1,3) <= 72
MCLin4(0,1,3):  72 y(1,0,3) - u(0,1,3) >= -0
MCLin5(0,1,3):  -44 y(1,0,3) + v(0,1,3) - u(0,1,3) >= -44
MCLin6(1,0,3):  u(1,0,3) >= -0
MCLin7(1,0,3):  -82 y(0,1,3) - u(1,0,3) <= -0
MCLin8(1,0,3):  34 y(0,1,3) + v(1,0,3) - u(1,0,3) <= 34
MCLin9(1,0,3):  34 y(0,1,3) - u(1,0,3) >= -0
MCLin10(1,0,3):  -82 y(0,1,3) + v(1,0,3) - u(1,0,3) >= -82
MCLinV(0,1,4):  x(0,4) - v(0,1,4) - x(1,4) = 8
MCLinV(1,0,4):  - x(0,4) - v(1,0,4) + x(1,4) = 2
MCLin1(0,1,4):  u(0,1,4) >= -0
MCLin2(0,1,4):  -47 y(1,0,4) - u(0,1,4) <= -0
MCLin3(0,1,4):  69 y(1,0,4) + v(0,1,4) - u(0,1,4) <= 69
MCLin4(0,1,4):  69 y(1,0,4) - u(0,1,4) >= -0
MCLin5(0,1,4):  -47 y(1,0,4) + v(0,1,4) - u(0,1,4) >= -47
MCLin6(1,0,4):  u(1,0,4) >= -0
MCLin7(1,0,4):  -79 y(0,1,4) - u(1,0,4) <= -0
MCLin8(1,0,4):  37 y(0,1,4) + v(1,0,4) - u(1,0,4) <= 37
MCLin9(1,0,4):  37 y(0,1,4) - u(1,0,4) >= -0
MCLin10(1,0,4):  -79 y(0,1,4) + v(1,0,4) - u(1,0,4) >= -79
MCLinV(0,2,0):  x(0,0) - v(0,2,0) - x(2,0) = 2
MCLinV(2,0,0):  - x(0,0) - v(2,0,0) + x(2,0) = 5
MCLin1(0,2,0):  u(0,2,0) >= -0
MCLin2(0,2,0):  -65 y(2,0,0) - u(0,2,0) <= -0
MCLin3(0,2,0):  63 y(2,0,0) + v(0,2,0) - u(0,2,0) <= 63
MCLin4(0,2,0):  63 y(2,0,0) - u(0,2,0) >= -0
MCLin5(0,2,0):  -65 y(2,0,0) + v(0,2,0) - u(0,2,0) >= -65
MCLin6(2,0,0):  u(2,0,0) >= -0
MCLin7(2,0,0):  -70 y(0,2,0) - u(2,0,0) <= -0
MCLin8(2,0,0):  58 y(0,2,0) + v(2,0,0) - u(2,0,0) <= 58
MCLin9(2,0,0):  58 y(0,2,0) - u(2,0,0) >= -0
MCLin10(2,0,0):  -70 y(0,2,0) + v(2,0,0) - u(2,0,0) >= -70
MCLinV(0,2,1):  x(0,1) - v(0,2,1) - x(2,1) = 2
MCLinV(2,0,1):  - x(0,1) - v(2,0,1) + x(2,1) = 10
MCLin1(0,2,1):  u(0,2,1) >= -0
MCLin2(0,2,1):  -82 y(2,0,1) - u(0,2,1) <= -0
MCLin3(0,2,1):  46 y(2,0,1) + v(0,2,1) - u(0,2,1) <= 46
MCLin4(0,2,1):  46 y(2,0,1) - u(0,2,1) >= -0
MCLin5(0,2,1):  -82 y(2,0,1) + v(0,2,1) - u(0,2,1) >= -82
MCLin6(2,0,1):  u(2,0,1) >= -0
MCLin7(2,0,1):  -58 y(0,2,1) - u(2,0,1) <= -0
MCLin8(2,0,1):  70 y(0,2,1) + v(2,0,1) - u(2,0,1) <= 70
MCLin9(2,0,1):  70 y(0,2,1) - u(2,0,1) >= -0
MCLin10(2,0,1):  -58 y(0,2,1) + v(2,0,1) - u(2,0,1) >= -58
MCLinV(0,2,2):  x(0,2) - v(0,2,2) - x(2,2) = 7
MCLinV(2,0,2):  - x(0,2) - v(2,0,2) + x(2,2) = 7
MCLin1(0,2,2):  u(0,2,2) >= -0
MCLin2(0,2,2):  -58 y(2,0,2) - u(0,2,2) <= -0
MCLin3(0,2,2):  70 y(2,0,2) + v(0,2,2) - u(0,2,2) <= 70
MCLin4(0,2,2):  70 y(2,0,2) - u(0,2,2) >= -0
MCLin5(0,2,2):  -58 y(2,0,2) + v(0,2,2) - u(0,2,2) >= -58
MCLin6(2,0,2):  u(2,0,2) >= -0
MCLin7(2,0,2):  -84 y(0,2,2) - u(2,0,2) <= -0
MCLin8(2,0,2):  44 y(0,2,2) + v(2,0,2) - u(2,0,2) <= 44
MCLin9(2,0,2):  44 y(0,2,2) - u(2,0,2) >= -0
MCLin10(2,0,2):  -84 y(0,2,2) + v(2,0,2) - u(2,0,2) >= -84
MCLinV(0,2,3):  x(0,3) - v(0,2,3) - x(2,3) = 9
MCLinV(2,0,3):  - x(0,3) - v(2,0,3) + x(2,3) = 5
MCLin1(0,2,3):  u(0,2,3) >= -0
MCLin2(0,2,3):  -69 y(2,0,3) - u(0,2,3) <= -0
MCLin3(0,2,3):  59 y(2,0,3) + v(0,2,3) - u(0,2,3) <= 59
MCLin4(0,2,3):  59 y(2,0,3) - u(0,2,3) >= -0
MCLin5(0,2,3):  -69 y(2,0,3) + v(0,2,3) - u(0,2,3) >= -69
MCLin6(2,0,3):  u(2,0,3) >= -0
MCLin7(2,0,3):  -73 y(0,2,3) - u(2,0,3) <= -0
MCLin8(2,0,3):  55 y(0,2,3) + v(2,0,3) - u(2,0,3) <= 55
MCLin9(2,0,3):  55 y(0,2,3) - u(2,0,3) >= -0
MCLin10(2,0,3):  -73 y(0,2,3) + v(2,0,3) - u(2,0,3) >= -73
MCLinV(0,2,4):  x(0,4) - v(0,2,4) - x(2,4) = 5
MCLinV(2,0,4):  - x(0,4) - v(2,0,4) + x(2,4) = 2
MCLin1(0,2,4):  u(0,2,4) >= -0
MCLin2(0,2,4):  -53 y(2,0,4) - u(0,2,4) <= -0
MCLin3(0,2,4):  75 y(2,0,4) + v(0,2,4) - u(0,2,4) <= 75
MCLin4(0,2,4):  75 y(2,0,4) - u(0,2,4) >= -0
MCLin5(0,2,4):  -53 y(2,0,4) + v(0,2,4) - u(0,2,4) >= -53
MCLin6(2,0,4):  u(2,0,4) >= -0
MCLin7(2,0,4):  -82 y(0,2,4) - u(2,0,4) <= -0
MCLin8(2,0,4):  46 y(0,2,4) + v(2,0,4) - u(2,0,4) <= 46
MCLin9(2,0,4):  46 y(0,2,4) - u(2,0,4) >= -0
MCLin10(2,0,4):  -82 y(0,2,4) + v(2,0,4) - u(2,0,4) >= -82
MCLinV(1,2,0):  x(1,0) - v(1,2,0) - x(2,0) = 2
MCLinV(2,1,0):  - x(1,0) - v(2,1,0) + x(2,0) = 8
MCLin1(1,2,0):  u(1,2,0) >= -0
MCLin2(1,2,0):  -46 y(2,1,0) - u(1,2,0) <= -0
MCLin3(1,2,0):  74 y(2,1,0) + v(1,2,0) - u(1,2,0) <= 74
MCLin4(1,2,0):  74 y(2,1,0) - u(1,2,0) >= -0
MCLin5(1,2,0):  -46 y(2,1,0) + v(1,2,0) - u(1,2,0) >= -46
MCLin6(2,1,0):  u(2,1,0) >= -0
MCLin7(2,1,0):  -84 y(1,2,0) - u(2,1,0) <= -0
MCLin8(2,1,0):  36 y(1,2,0) + v(2,1,0) - u(2,1,0) <= 36
MCLin9(2,1,0):  36 y(1,2,0) - u(2,1,0) >= -0
MCLin10(2,1,0):  -84 y(1,2,0) + v(2,1,0) - u(2,1,0) >= -84
MCLinV(1,2,1):  x(1,1) - v(1,2,1) - x(2,1) = 2
MCLinV(2,1,1):  - x(1,1) - v(2,1,1) + x(2,1) = 9
MCLin1(1,2,1):  u(1,2,1) >= -0
MCLin2(1,2,1):  -62 y(2,1,1) - u(1,2,1) <= -0
MCLin3(1,2,1):  58 y(2,1,1) + v(1,2,1) - u(1,2,1) <= 58
MCLin4(1,2,1):  58 y(2,1,1) - u(1,2,1) >= -0
MCLin5(1,2,1):  -62 y(2,1,1) + v(1,2,1) - u(1,2,1) >= -62
MCLin6(2,1,1):  u(2,1,1) >= -0
MCLin7(2,1,1):  -69 y(1,2,1) - u(2,1,1) <= -0
MCLin8(2,1,1):  51 y(1,2,1) + v(2,1,1) - u(2,1,1) <= 51
MCLin9(2,1,1):  51 y(1,2,1) - u(2,1,1) >= -0
MCLin10(2,1,1):  -69 y(1,2,1) + v(2,1,1) - u(2,1,1) >= -69
MCLinV(1,2,2):  x(1,2) - v(1,2,2) - x(2,2) = 7
MCLinV(2,1,2):  - x(1,2) - v(2,1,2) + x(2,2) = 7
MCLin1(1,2,2):  u(1,2,2) >= -0
MCLin2(1,2,2):  -73 y(2,1,2) - u(1,2,2) <= -0
MCLin3(1,2,2):  47 y(2,1,2) + v(1,2,2) - u(1,2,2) <= 47
MCLin4(1,2,2):  47 y(2,1,2) - u(1,2,2) >= -0
MCLin5(1,2,2):  -73 y(2,1,2) + v(1,2,2) - u(1,2,2) >= -73
MCLin6(2,1,2):  u(2,1,2) >= -0
MCLin7(2,1,2):  -61 y(1,2,2) - u(2,1,2) <= -0
MCLin8(2,1,2):  59 y(1,2,2) + v(2,1,2) - u(2,1,2) <= 59
MCLin9(2,1,2):  59 y(1,2,2) - u(2,1,2) >= -0
MCLin10(2,1,2):  -61 y(1,2,2) + v(2,1,2) - u(2,1,2) >= -61
MCLinV(1,2,3):  x(1,3) - v(1,2,3) - x(2,3) = 9
MCLinV(2,1,3):  - x(1,3) - v(2,1,3) + x(2,3) = 5
MCLin1(1,2,3):  u(1,2,3) >= -0
MCLin2(1,2,3):  -84 y(2,1,3) - u(1,2,3) <= -0
MCLin3(1,2,3):  36 y(2,1,3) + v(1,2,3) - u(1,2,3) <= 36
MCLin4(1,2,3):  36 y(2,1,3) - u(1,2,3) >= -0
MCLin5(1,2,3):  -84 y(2,1,3) + v(1,2,3) - u(1,2,3) >= -84
MCLin6(2,1,3):  u(2,1,3) >= -0
MCLin7(2,1,3):  -50 y(1,2,3) - u(2,1,3) <= -0
MCLin8(2,1,3):  70 y(1,2,3) + v(2,1,3) - u(2,1,3) <= 70
MCLin9(2,1,3):  70 y(1,2,3) - u(2,1,3) >= -0
MCLin10(2,1,3):  -50 y(1,2,3) + v(2,1,3) - u(2,1,3) >= -50
MCLinV(1,2,4):  x(1,4) - v(1,2,4) - x(2,4) = 5
MCLinV(2,1,4):  - x(1,4) - v(2,1,4) + x(2,4) = 8
MCLin1(1,2,4):  u(1,2,4) >= -0
MCLin2(1,2,4):  -68 y(2,1,4) - u(1,2,4) <= -0
MCLin3(1,2,4):  52 y(2,1,4) + v(1,2,4) - u(1,2,4) <= 52
MCLin4(1,2,4):  52 y(2,1,4) - u(1,2,4) >= -0
MCLin5(1,2,4):  -68 y(2,1,4) + v(1,2,4) - u(1,2,4) >= -68
MCLin6(2,1,4):  u(2,1,4) >= -0
MCLin7(2,1,4):  -65 y(1,2,4) - u(2,1,4) <= -0
MCLin8(2,1,4):  55 y(1,2,4) + v(2,1,4) - u(2,1,4) <= 55
MCLin9(2,1,4):  55 y(1,2,4) - u(2,1,4) >= -0
MCLin10(2,1,4):  -65 y(1,2,4) + v(2,1,4) - u(2,1,4) >= -65
makespan(0):  C - x(0,4) >= 2
makespan(1):  C - x(1,0) >= 8
makespan(2):  C - x(2,3) >= 9
cut_clique_0(012,2):  0.14286 x(1,2) + 0.14286 x(2,2) >= 1
cut_clique_0(012,3):  0.03406 x(0,3) + 0.00929 x(2,3) >= 1
cut_clique_0(012,4):  0.06395 x(1,4) + 0.01163 x(2,4) >= 1
cut_clique_0:  0.02153 x(1,1) + 0.00478 x(2,1) + 0.03589 x(1,4) >= 1
cut_clique_1:  0.00706 x(1,1) + 0.02588 x(0,3) + 0.00706 x(2,3) + 0.00706 x(1,4) >= 1
Bounds
 0 <= C <= 91
 10 <= x(0,0) <= 72
 0 <= y(0,1,0) <= 1
 0 <= y(1,0,0) <= 1
 -81 <= v(0,1,0) <= 35
 -48 <= v(1,0,0) <= 68
 -910 <= u(0,1,0)
 -910 <= u(1,0,0)
 0 <= y(0,2,0) <= 1
 0 <= y(2,0,0) <= 1
 -65 <= v(0,2,0) <= 63
 -70 <= v(2,0,0) <= 58
 -910 <= u(0,2,0)
 -910 <= u(2,0,0)
 29 <= x(1,0) <= 83
 0 <= y(1,2,0) <= 1
 0 <= y(2,1,0) <= 1
 -46 <= v(1,2,0) <= 74
 -84 <= v(2,1,0) <= 36
 -910 <= u(1,2,0)
 -910 <= u(2,1,0)
 7 <= x(2,0) <= 73
 0 <= x(0,1) <= 62
 0 <= y(0,1,1) <= 1
 0 <= y(1,0,1) <= 1
 -83 <= v(0,1,1) <= 33
 -52 <= v(1,0,1) <= 64
 -910 <= u(0,1,1)
 -910 <= u(1,0,1)
 0 <= y(0,2,1) <= 1
 0 <= y(2,0,1) <= 1
 -82 <= v(0,2,1) <= 46
 -58 <= v(2,0,1) <= 70
 -910 <= u(0,2,1)
 -910 <= u(2,0,1)
 20 <= x(1,1) <= 74
 0 <= y(1,2,1) <= 1
 0 <= y(2,1,1) <= 1
 -62 <= v(1,2,1) <= 58
 -69 <= v(2,1,1) <= 51
 -910 <= u(1,2,1)
 -910 <= u(2,1,1)
 14 <= x(2,1) <= 80
 15 <= x(0,2) <= 77
 0 <= y(0,1,2) <= 1
 0 <= y(1,0,2) <= 1
 -46 <= v(0,1,2) <= 70
 -84 <= v(1,0,2) <= 32
 -910 <= u(0,1,2)
 -910 <= u(1,0,2)
 0 <= y(0,2,2) <= 1
 0 <= y(2,0,2) <= 1
 -58 <= v(0,2,2) <= 70
 -84 <= v(2,0,2) <= 44
 -910 <= u(0,2,2)
 -910 <= u(2,0,2)
 0 <= x(1,2) <= 54
 0 <= y(1,2,2) <= 1
 0 <= y(2,1,2) <= 1
 -73 <= v(1,2,2) <= 47
 -61 <= v(2,1,2) <= 59
 -910 <= u(1,2,2)
 -910 <= u(2,1,2)
 0 <= x(2,2) <= 66
 22 <= x(0,3) <= 84
 0 <= y(0,1,3) <= 1
 0 <= y(1,0,3) <= 1
 -44 <= v(0,1,3) <= 72
 -82 <= v(1,0,3) <= 34
 -910 <= u(0,1,3)
 -910 <= u(1,0,3)
 0 <= y(0,2,3) <= 1
 0 <= y(2,0,3) <= 1
 -69 <= v(0,2,3) <= 59
 -73 <= v(2,0,3) <= 55
 -910 <= u(0,2,3)
 -910 <= u(2,0,3)
 7 <= x(1,3) <= 61
 0 <= y(1,2,3) <= 1
 0 <= y(2,1,3) <= 1
 -84 <= v(1,2,3) <= 36
 -50 <= v(2,1,3) <= 70
 -910 <= u(1,2,3)
 -910 <= u(2,1,3)
 16 <= x(2,3) <= 82
 27 <= x(0,4) <= 89
 0 <= y(0,1,4) <= 1
 0 <= y(1,0,4) <= 1
 -47 <= v(0,1,4) <= 69
 -79 <= v(1,0,4) <= 37
 -910 <= u(0,1,4)
 -910 <= u(1,0,4)
 0 <= y(0,2,4) <= 1
 0 <= y(2,0,4) <= 1
 -53 <= v(0,2,4) <= 75
 -82 <= v(2,0,4) <= 46
 -910 <= u(0,2,4)
 -910 <= u(2,0,4)
 12 <= x(1,4) <= 66
 0 <= y(1,2,4) <= 1
 0 <= y(2,1,4) <= 1
 -68 <= v(1,2,4) <= 52
 -65 <= v(2,1,4) <= 55
 -910 <= u(1,2,4)
 -910 <= u(2,1,4)
 9 <= x(2,4) <= 75
Integers
C x(0,0) y(0,1,0) y(1,0,0) v(0,1,0) v(1,0,0) u(0,1,0) u(1,0,0) y(0,2,0) y(2,0,0) 
v(0,2,0) v(2,0,0) u(0,2,0) u(2,0,0) x(1,0) y(1,2,0) y(2,1,0) v(1,2,0) v(2,1,0) u(1,2,0) 
u(2,1,0) x(2,0) x(0,1) y(0,1,1) y(1,0,1) v(0,1,1) v(1,0,1) u(0,1,1) u(1,0,1) y(0,2,1) 
y(2,0,1) v(0,2,1) v(2,0,1) u(0,2,1) u(2,0,1) x(1,1) y(1,2,1) y(2,1,1) v(1,2,1) v(2,1,1) 
u(1,2,1) u(2,1,1) x(2,1) x(0,2) y(0,1,2) y(1,0,2) v(0,1,2) v(1,0,2) u(0,1,2) u(1,0,2) 
y(0,2,2) y(2,0,2) v(0,2,2) v(2,0,2) u(0,2,2) u(2,0,2) x(1,2) y(1,2,2) y(2,1,2) v(1,2,2) 
v(2,1,2) u(1,2,2) u(2,1,2) x(2,2) x(0,3) y(0,1,3) y(1,0,3) v(0,1,3) v(1,0,3) u(0,1,3) 
u(1,0,3) y(0,2,3) y(2,0,3) v(0,2,3) v(2,0,3) u(0,2,3) u(2,0,3) x(1,3) y(1,2,3) y(2,1,3) 
v(1,2,3) v(2,1,3) u(1,2,3) u(2,1,3) x(2,3) x(0,4) y(0,1,4) y(1,0,4) v(0,1,4) v(1,0,4) 
u(0,1,4) u(1,0,4) y(0,2,4) y(2,0,4) v(0,2,4) v(2,0,4) u(0,2,4) u(2,0,4) x(1,4) y(1,2,4) 
y(2,1,4) v(1,2,4) v(2,1,4) u(1,2,4) u(2,1,4) x(2,4) 
End
